NAME 
ROWS
 N  OBJ
 L  R0      
 L  R1      
 E  R2      
 E  R3      
 E  R4      
 E  R5      
 E  R6      
 E  R7      
 E  R8      
 E  R9      
 E  R10     
 E  R11     
COLUMNS
    MARKER    'MARKER'                 'INTORG'
    I0(7)     OBJ       -25
    I0(7)     R0        -3
    I0(7)     R1        10
    I0(7)     R2        5
    I0(7)     R3        9
    I0(7)     R4        -1
    I0(7)     R5        17
    I0(7)     R11       1
    I1(5)     OBJ       -36
    I1(5)     R0        147
    I1(5)     R1        189
    I1(5)     R2        12
    I1(5)     R5        15
    I1(5)     R11       1
    I2(7)     OBJ       172
    I2(7)     R0        142
    I2(7)     R1        -127
    I2(7)     R2        9
    I2(7)     R3        17
    I2(7)     R4        5
    I2(7)     R5        8
    I2(7)     R11       1
    I3(6)     OBJ       -140
    I3(6)     R0        -9
    I3(6)     R1        -179
    I3(6)     R2        10
    I3(6)     R4        17
    I3(6)     R5        15
    I3(6)     R11       1
    MARKER    'MARKER'                 'INTEND'
    C4(10)    OBJ       7
    C4(10)    R0        1
    C4(10)    R1        1
    C4(10)    R2        12
    C4(10)    R3        7
    C4(10)    R4        -1
    C4(10)    R6        6
    C4(10)    R7        12
    C4(10)    R8        15
    C4(10)    R9        3
    C4(10)    R10       6
    C5(9)     OBJ       -8
    C5(9)     R0        -4
    C5(9)     R1        6
    C5(9)     R2        17
    C5(9)     R4        1
    C5(9)     R5        4
    C5(9)     R6        1
    C5(9)     R7        6
    C5(9)     R9        15
    C5(9)     R10       7
    C6(9)     OBJ       -7
    C6(9)     R0        7
    C6(9)     R1        -9
    C6(9)     R2        3
    C6(9)     R3        18
    C6(9)     R4        19
    C6(9)     R5        8
    C6(9)     R6        -1
    C6(9)     R8        16
    C6(9)     R10       2
    C7(6)     OBJ       1
    C7(6)     R0        -6
    C7(6)     R1        2
    C7(6)     R2        19
    C7(6)     R7        7
    C7(6)     R8        12
    C7(6)     R9        13
    C8(10)    OBJ       -1
    C8(10)    R0        1
    C8(10)    R1        -2
    C8(10)    R2        16
    C8(10)    R3        15
    C8(10)    R4        11
    C8(10)    R5        11
    C8(10)    R7        12
    C8(10)    R8        5
    C8(10)    R9        17
    C8(10)    R10       5
    C9(11)    OBJ       -6
    C9(11)    R0        -1
    C9(11)    R1        2
    C9(11)    R2        19
    C9(11)    R3        8
    C9(11)    R4        15
    C9(11)    R5        14
    C9(11)    R6        17
    C9(11)    R7        2
    C9(11)    R8        18
    C9(11)    R9        13
    C9(11)    R10       11
    C10(1)    R2        1
    C11(1)    R3        1
    C12(1)    R4        1
    C13(1)    R5        1
    C14(1)    R6        1
    C15(1)    R7        1
    C16(1)    R8        1
    C17(1)    R9        1
    C18(1)    R10       1
    C19(1)    R11       1
RHS
    RHS1      R0        -1.0728125000000006e+01
    RHS1      R1        -172.896875
    RHS1      R2        94
    RHS1      R3        68
    RHS1      R4        66
    RHS1      R5        72
    RHS1      R6        78
    RHS1      R7        55
    RHS1      R8        53
    RHS1      R9        98
    RHS1      R10       72
    RHS1      R11       1
BOUNDS
 UP BND1      I0(7)     1
 UP BND1      I1(5)     1
 UP BND1      I2(7)     1
 UP BND1      I3(6)     1
ENDATA
